id: 1043
name: dano3mip
group: miplib2010
method: 2

Gurobi 7.0.2 (linux64, Matlab) logging started Mon Mar 26 10:13:36 2018


Gurobi 7.0.2 (linux64) logging started Mon Mar 26 10:13:36 2018

Optimize a model with 3202 rows, 13873 columns and 79655 nonzeros
Coefficient statistics:
  Matrix range     [5e-01, 1e+03]
  Objective range  [1e+00, 1e+00]
  Bounds range     [1e+00, 2e+03]
  RHS range        [2e+00, 2e+03]
Presolve removed 52 rows and 36 columns
Presolve time: 0.03s
Presolved: 3150 rows, 13837 columns, 79530 nonzeros

Ordering time: 0.11s

Barrier statistics:
 Dense cols : 1
 AA' NZ     : 1.134e+05
 Factor NZ  : 1.102e+06 (roughly 16 MBytes of memory)
 Factor Ops : 8.262e+08 (less than 1 second per iteration)
 Threads    : 4

                  Objective                Residual
Iter       Primal          Dual         Primal    Dual     Compl     Time
   0   9.99934760e+02 -3.68820000e+03  2.66e+05 0.00e+00  5.08e+01     0s
   1   1.36331354e+03 -5.65550654e+03  6.71e+04 6.77e-03  1.32e+01     0s
   2   1.14300023e+03 -5.08028330e+03  6.12e+03 5.14e-03  1.52e+00     0s
   3   1.11653256e+03 -3.51279881e+03  4.34e+02 2.07e-03  3.66e-01     0s
   4   1.07224708e+03 -1.51579604e+03  1.82e+02 1.01e-03  1.84e-01     0s
   5   1.04489409e+03 -1.06997436e+03  3.44e+01 8.16e-04  1.37e-01     0s
   6   1.01822837e+03 -3.17395041e+02  1.24e+01 5.07e-04  8.55e-02     0s
   7   9.97651206e+02 -1.57895627e+01  5.98e+00 3.86e-04  6.46e-02     0s
   8   9.68070595e+02  8.15807263e+01  4.32e+00 3.48e-04  5.64e-02     0s
   9   8.14931335e+02  9.62623187e+01  2.59e+00 2.53e-04  4.53e-02     0s
  10   7.53294287e+02  2.02617940e+02  2.15e+00 1.26e-04  3.43e-02     0s
  11   6.36692533e+02  3.03156954e+02  1.31e+00 6.46e-05  2.07e-02     0s
  12   6.27286624e+02  3.94168907e+02  9.86e-01 3.65e-05  1.44e-02     0s
  13   6.19695693e+02  4.54621180e+02  7.91e-01 2.46e-05  1.02e-02     0s
  14   6.10971239e+02  5.24515077e+02  5.76e-01 1.12e-05  5.35e-03     0s
  15   6.01400439e+02  5.36718110e+02  3.40e-01 8.88e-06  4.00e-03     1s
  16   5.94184420e+02  5.60196949e+02  1.67e-01 4.37e-06  2.10e-03     1s
  17   5.90772744e+02  5.66243326e+02  1.23e-01 3.19e-06  1.52e-03     1s
  18   5.87320402e+02  5.70859117e+02  9.13e-02 1.90e-06  1.02e-03     1s
  19   5.84579595e+02  5.72927820e+02  6.49e-02 1.26e-06  7.20e-04     1s
  20   5.84272634e+02  5.74167365e+02  6.16e-02 8.93e-07  6.24e-04     1s
  21   5.82808475e+02  5.74479784e+02  4.99e-02 7.51e-07  5.14e-04     1s
  22   5.81547110e+02  5.74828391e+02  3.98e-02 6.01e-07  4.15e-04     1s
  23   5.80653317e+02  5.75252504e+02  3.25e-02 4.41e-07  3.33e-04     1s
  24   5.79097606e+02  5.75684701e+02  2.04e-02 2.60e-07  2.10e-04     1s
  25   5.78349097e+02  5.75888014e+02  1.48e-02 1.62e-07  1.52e-04     1s
  26   5.77952701e+02  5.75984325e+02  1.19e-02 1.17e-07  1.21e-04     1s
  27   5.77276228e+02  5.76061750e+02  7.06e-03 7.84e-08  7.48e-05     1s
  28   5.76915867e+02  5.76135082e+02  4.57e-03 4.43e-08  4.81e-05     1s
  29   5.76679166e+02  5.76182160e+02  2.94e-03 2.04e-08  3.06e-05     1s
  30   5.76490053e+02  5.76207555e+02  1.65e-03 9.15e-09  1.74e-05     1s
  31   5.76356151e+02  5.76215749e+02  7.72e-04 5.83e-09  8.64e-06     1s
  32   5.76306992e+02  5.76223119e+02  4.56e-04 2.99e-09  5.16e-06     1s
  33   5.76268252e+02  5.76226825e+02  2.09e-04 1.58e-09  2.55e-06     1s
  34   5.76248563e+02  5.76229273e+02  9.24e-05 6.99e-10  1.19e-06     1s
  35   5.76237432e+02  5.76231064e+02  2.87e-05 1.27e-10  3.91e-07     1s
  36   5.76233414e+02  5.76231513e+02  7.85e-06 1.06e-11  1.17e-07     1s
  37   5.76232055e+02  5.76231604e+02  1.86e-06 3.13e-13  2.77e-08     1s
  38   5.76231676e+02  5.76231617e+02  1.44e-07 1.21e-15  3.62e-09     1s
  39   5.76231620e+02  5.76231620e+02  1.25e-09 1.50e-13  1.09e-11     1s

Barrier solved model in 39 iterations and 0.97 seconds
Optimal objective 5.76231620e+02

Crossover log...

       0 DPushes remaining with DInf 0.0000000e+00                 1s

     566 PPushes remaining with PInf 1.7806871e-03                 1s
       0 PPushes remaining with PInf 0.0000000e+00                 1s

  Push phase complete: Pinf 0.0000000e+00, Dinf 8.1900923e+00      1s

Iteration    Objective       Primal Inf.    Dual Inf.      Time
    1309    5.7623162e+02   0.000000e+00   8.190092e+00      1s
    1489    5.7623162e+02   0.000000e+00   0.000000e+00      1s

Solved in 1489 iterations and 1.12 seconds
Optimal objective  5.762316203e+02
status: OPTIMAL
